Reading model...
...model read.
creating competitive generators file...
...competitive generators recorded.
Loading data...
.. real-time data read.
Compiling instance...
...instance created.
Creating Offer Mitigation (model will solve as dispatch if TRUE)...
NOTE: storage offers will not be mitigated
...storage offer mitigation file created
Converting model to MPEC...
...converted
NOTE: initial MIP solve with only storage competitive to get feasible solution
Solving...

Welcome to IBM(R) ILOG(R) CPLEX(R) Interactive Optimizer 12.9.0.0
  with Simplex, Mixed Integer & Barrier Optimizers
5725-A06 5725-A29 5724-Y48 5724-Y49 5724-Y54 5724-Y55 5655-Y21
Copyright IBM Corp. 1988, 2019.  All Rights Reserved.

Type 'help' for a list of available commands.
Type 'help' followed by a command name for more
information on commands.

CPLEX> Logfile 'cplex.log' closed.
Logfile 'C:\Users\llavin\Desktop\test85\logs\tmpngxvmgrz.cplex.log' open.
CPLEX> New value for parallel optimization mode: -1
CPLEX> New value for mixed integer optimality gap tolerance: 0.05
CPLEX> New value for deterministic time limit in ticks: 100000
CPLEX> Problem 'C:\Users\llavin\Desktop\test85\logs\tmpf3h1tbg9.pyomo.lp' read.
Read time = 0.52 sec. (27.87 ticks)
CPLEX> Problem name         : C:\Users\llavin\Desktop\test85\logs\tmpf3h1tbg9.pyomo.lp
Objective sense      : Maximize
Variables            :  107779  [Nneg: 1,  Box: 44054,  Free: 8928,
                                 Binary: 54796]
Objective nonzeros   :   19154
Linear constraints   :  246995  [Less: 82866,  Greater: 118424,  Equal: 45705]
  Nonzeros           :  582461
  RHS nonzeros       :  136321

Variables            : Min LB: -5000.000        Max UB: 1000000.       
Objective nonzeros   : Min   : 0.1416667        Max   : 2500.000       
Linear constraints   :
  Nonzeros           : Min   : 0.1416667        Max   : 1000000.       
  RHS nonzeros       : Min   : 1.500000e-07     Max   : 1000000.       
CPLEX> CPXPARAM_Parallel                                -1
CPXPARAM_DetTimeLimit                            100000
CPXPARAM_MIP_Tolerances_MIPGap                   0.050000000000000003
Tried aggregator 3 times.
MIP Presolve eliminated 172877 rows and 33847 columns.
MIP Presolve added 7769 rows and 0 columns.
MIP Presolve modified 52062 coefficients.
Aggregator did 26150 substitutions.
Reduced MIP has 55737 rows, 47398 columns, and 152198 nonzeros.
Reduced MIP has 18808 binaries, 0 generals, 0 SOSs, and 0 indicators.
Presolve time = 0.59 sec. (339.55 ticks)
Probing fixed 771 vars, tightened 8478 bounds.
Probing time = 0.42 sec. (15.83 ticks)
Tried aggregator 2 times.
MIP Presolve eliminated 1789 rows and 1568 columns.
MIP Presolve modified 7044 coefficients.
Aggregator did 48 substitutions.
Reduced MIP has 53900 rows, 45782 columns, and 146791 nonzeros.
Reduced MIP has 18036 binaries, 0 generals, 0 SOSs, and 0 indicators.
Presolve time = 0.31 sec. (276.37 ticks)
Probing fixed 0 vars, tightened 59 bounds.
Probing time = 0.58 sec. (16.74 ticks)
Clique table members: 92514.
MIP emphasis: balance optimality and feasibility.
MIP search method: dynamic search.
Parallel mode: opportunistic, using up to 32 threads.
Root relaxation solution time = 1.16 sec. (2190.24 ticks)

        Nodes                                         Cuts/
   Node  Left     Objective  IInf  Best Integer    Best Bound    ItCnt     Gap

*     0     0      integral     0      -58.8235      -58.8235     9930    0.00%
Elapsed time = 3.59 sec. (3269.81 ticks, tree = 0.00 MB, solutions = 1)

Root node processing (before b&c):
  Real time             =    3.61 sec. (3273.81 ticks)
Parallel b&c, 32 threads:
  Real time             =    0.00 sec. (0.00 ticks)
  Sync time (average)   =    0.00 sec.
  Wait time (average)   =    0.00 sec.
                          ------------
Total (root+branch&cut) =    3.61 sec. (3273.81 ticks)

Solution pool: 1 solution saved.

MIP - Integer optimal solution:  Objective = -5.8823529588e+01
Solution time =    3.64 sec.  Iterations = 9930  Nodes = 0
Deterministic time = 3274.11 ticks  (899.24 ticks/sec)

CPLEX> Incumbent solution written to file 'C:\Users\llavin\Desktop\test85\logs\tmpxe6owpyz.cplex.sol'.
CPLEX> NOTE: no warmstart specified for MIP iteration, default behavior is true
NOTE: resolving with all competitive generators using storage-only solution to warmstart
Solving...

Welcome to IBM(R) ILOG(R) CPLEX(R) Interactive Optimizer 12.9.0.0
  with Simplex, Mixed Integer & Barrier Optimizers
5725-A06 5725-A29 5724-Y48 5724-Y49 5724-Y54 5724-Y55 5655-Y21
Copyright IBM Corp. 1988, 2019.  All Rights Reserved.

Type 'help' for a list of available commands.
Type 'help' followed by a command name for more
information on commands.

CPLEX> Logfile 'cplex.log' closed.
Logfile 'C:\Users\llavin\Desktop\test85\logs\tmpls8kk7_w.cplex.log' open.
CPLEX> New value for parallel optimization mode: -1
CPLEX> New value for mixed integer optimality gap tolerance: 0.05
CPLEX> New value for deterministic time limit in ticks: 100000
CPLEX> Problem 'C:\Users\llavin\Desktop\test85\logs\tmpqjzvqoi3.pyomo.lp' read.
Read time = 0.52 sec. (27.92 ticks)
CPLEX> MIP start file 'C:\Users\llavin\Desktop\test85\logs\tmpir517re2.cplex.mst' read.
CPLEX> Problem name         : C:\Users\llavin\Desktop\test85\logs\tmpqjzvqoi3.pyomo.lp
Objective sense      : Maximize
Variables            :  109219  [Nneg: 1,  Box: 45494,  Free: 8928,
                                 Binary: 54796]
Objective nonzeros   :   20546
Linear constraints   :  246995  [Less: 82866,  Greater: 118424,  Equal: 45705]
  Nonzeros           :  582461
  RHS nonzeros       :  136321

Variables            : Min LB: -5000.000        Max UB: 1000000.       
Objective nonzeros   : Min   : 0.1416667        Max   : 2500.000       
Linear constraints   :
  Nonzeros           : Min   : 0.1416667        Max   : 1000000.       
  RHS nonzeros       : Min   : 1.500000e-07     Max   : 1000000.       
CPLEX> CPXPARAM_Parallel                                -1
CPXPARAM_DetTimeLimit                            100000
CPXPARAM_MIP_Tolerances_MIPGap                   0.050000000000000003
1 of 1 MIP starts provided solutions.
MIP start 'm1' defined initial solution with objective -58.8235.
Tried aggregator 3 times.
MIP Presolve eliminated 172877 rows and 35287 columns.
MIP Presolve added 7769 rows and 0 columns.
MIP Presolve modified 52062 coefficients.
Aggregator did 26150 substitutions.
Reduced MIP has 55737 rows, 47398 columns, and 152198 nonzeros.
Reduced MIP has 18808 binaries, 0 generals, 0 SOSs, and 0 indicators.
Presolve time = 0.58 sec. (340.29 ticks)
Probing fixed 771 vars, tightened 8478 bounds.
Probing time = 0.41 sec. (15.83 ticks)
Tried aggregator 2 times.
MIP Presolve eliminated 1789 rows and 1568 columns.
MIP Presolve modified 7044 coefficients.
Aggregator did 48 substitutions.
Reduced MIP has 53900 rows, 45782 columns, and 146791 nonzeros.
Reduced MIP has 18036 binaries, 0 generals, 0 SOSs, and 0 indicators.
Presolve time = 0.31 sec. (276.38 ticks)
Probing fixed 0 vars, tightened 57 bounds.
Probing time = 0.61 sec. (16.90 ticks)
Clique table members: 92332.
MIP emphasis: balance optimality and feasibility.
MIP search method: dynamic search.
Parallel mode: opportunistic, using up to 32 threads.
Root relaxation solution time = 0.53 sec. (425.50 ticks)

        Nodes                                         Cuts/
   Node  Left     Objective  IInf  Best Integer    Best Bound    ItCnt     Gap

*     0+    0                          -58.8235   1.11132e+07              --- 
      0     0        cutoff            -58.8235                   9651     --- 

Root node processing (before b&c):
  Real time             =    3.25 sec. (1641.06 ticks)
Parallel b&c, 32 threads:
  Real time             =    0.00 sec. (0.00 ticks)
  Sync time (average)   =    0.00 sec.
  Wait time (average)   =    0.00 sec.
                          ------------
Total (root+branch&cut) =    3.25 sec. (1641.06 ticks)

Solution pool: 1 solution saved.

MIP - Integer optimal solution:  Objective = -5.8823529412e+01
Solution time =    3.27 sec.  Iterations = 9651  Nodes = 0
Deterministic time = 1641.37 ticks  (502.72 ticks/sec)

CPLEX> Incumbent solution written to file 'C:\Users\llavin\Desktop\test85\logs\tmpe912mplm.cplex.sol'.
CPLEX> Exporting results... 
